p tdp 15 39
1 3
1 4
1 6
1 8
1 10
1 13
2 7
2 10
2 13
2 15
3 6
3 8
3 9
3 12
4 7
4 8
4 13
5 6
5 9
5 10
5 14
5 15
6 9
6 10
7 8
7 11
7 13
7 15
8 11
8 12
9 12
9 14
10 13
10 15
11 12
11 14
11 15
12 14
14 15
